Instance Name : rc108
Date : 2022-07-21
Solution
Route 1 : 41 42 44 43 40 38 37 35 36 39
Route 2 : 61 81 72 71 93 96 54
Route 3 : 7 8 46 4 45 3 5 1 70 68
Route 4 : 55 53 98
Route 5 : 69 88 60 78 73 79 6 2 100
Route 6 : 12 14 47 17 16 15 13 9 11 10
Route 7 : 82 99 59 87 97 75 58 77
Route 8 : 90 65 52 86 74 57 83 66
Route 9 : 25 23 21 48 18 19 49 20 22 24
Route 10 : 64 51 76 89 63 85 84 56 91
Route 11 : 94 67 50 62 95 92
Route 12 : 33 32 30 28 26 27 29 31 34 80
